(declare-fun c () String)
(declare-fun g () String)
(declare-fun b () String)
(declare-fun d () String)
(declare-fun h () String)
(assert (= (str.++ h b) h))
(assert (= (str.++ b "g") "g"))
(assert (= (str.++ d "c") (str.++ "e" c "fb" g)))

(check-sat)
